p tw 39 48
11 16
4 7
22 23
10 11
4 8
36 37
28 29
7 38
34 35
18 19
15 19
4 31
31 32
32 33
16 17
5 36
3 34
4 9
15 23
28 30
1 2
20 21
10 12
12 24
17 24
19 25
15 18
15 22
2 6
21 26
4 5
13 15
1 4
14 15
11 21
11 12
4 29
11 17
38 39
26 27
13 14
14 25
19 27
24 25
11 20
17 26
23 27
3 4